(set-option :produce-models true); benchmark generated from python API
(set-info :status unknown)
(declare-fun l_1_0_6 () Real)
(declare-fun l_1_0_4 () Real)
(declare-fun l_1_0_3 () Real)
(declare-fun l_1_0_9 () Real)
(declare-fun l_1_0_10 () Real)
(declare-fun _a_0_ () Real)
(declare-fun l_1_0_5 () Real)
(declare-fun l_1_0_11 () Real)
(declare-fun _a_1_ () Real)
(declare-fun l_1_0_8 () Real)
(declare-fun l_1_0_7 () Real)
(declare-fun l_1_0_2 () Real)
(declare-fun l_1_0_1 () Real)
(declare-fun l_1_1_9 () Real)
(declare-fun l_1_1_8 () Real)
(declare-fun l_1_1_7 () Real)
(declare-fun l_1_1_6 () Real)
(declare-fun l_1_1_5 () Real)
(declare-fun l_1_1_4 () Real)
(declare-fun l_1_1_3 () Real)
(declare-fun l_1_1_2 () Real)
(declare-fun l_1_1_15 () Real)
(declare-fun l_1_1_14 () Real)
(declare-fun l_1_1_13 () Real)
(declare-fun l_1_1_12 () Real)
(declare-fun l_1_1_11 () Real)
(declare-fun l_1_1_10 () Real)
(declare-fun l_1_1_1 () Real)
(declare-fun l_1_1_17 () Real)
(declare-fun l_1_1_16 () Real)
(declare-fun l_1_2_9 () Real)
(declare-fun l_1_2_5 () Real)
(declare-fun l_1_2_4 () Real)
(declare-fun l_1_2_3 () Real)
(declare-fun l_1_2_16 () Real)
(declare-fun l_1_2_15 () Real)
(declare-fun l_1_2_11 () Real)
(declare-fun l_1_2_1 () Real)
(declare-fun l_1_2_7 () Real)
(declare-fun l_1_2_6 () Real)
(declare-fun l_1_2_12 () Real)
(declare-fun l_1_2_10 () Real)
(declare-fun l_1_2_17 () Real)
(declare-fun l_1_2_8 () Real)
(declare-fun l_1_2_2 () Real)
(declare-fun l_1_2_14 () Real)
(declare-fun l_1_2_13 () Real)
(assert
 (let ((?x27 (- (- _a_0_ (* (* 2.0 l_1_0_10) l_1_0_9)) (* 1.0 l_1_0_3))))
 (= (- (- ?x27 (* 1.0 l_1_0_4)) (* 1.0 l_1_0_6)) 0.0)))
(assert
 (let ((?x217 (+ (- (- _a_1_ (* l_1_0_10 l_1_0_10)) (* l_1_0_11 l_1_0_11)) l_1_0_3)))
 (= (+ (- (+ ?x217 l_1_0_4) (* 1.0 l_1_0_5)) l_1_0_6) 0.0)))
(assert
 (let ((?x366 (* l_1_0_9 l_1_0_9)))
 (let ((?x368 (+ (- (- (- (- (- l_1_0_1) l_1_0_2) l_1_0_7) l_1_0_8) ?x366) 1.0)))
 (= ?x368 0.0))))
(assert
 (= (* 2.0 l_1_0_5) 0.0))
(assert
 (= (- l_1_0_5) 0.0))
(assert
 (>= l_1_0_1 0.0))
(assert
 (>= l_1_0_2 0.0))
(assert
 (>= l_1_0_3 0.0))
(assert
 (>= l_1_0_4 0.0))
(assert
 (>= l_1_0_5 0.0))
(assert
 (>= l_1_0_6 0.0))
(assert
 (>= l_1_0_7 0.0))
(assert
 (>= l_1_0_8 0.0))
(assert
 (>= l_1_0_9 0.0))
(assert
 (>= l_1_0_11 0.0))
(assert
 (let ((?x17 (* (/ 2601.0 10000.0) l_1_1_8)))
 (let ((?x179 (* (/ 51.0 100.0) l_1_1_7)))
 (let ((?x14 (* (/ 51.0 100.0) l_1_1_6)))
 (let ((?x15 (* (/ 51.0 100.0) l_1_1_3)))
 (let ((?x18 (* l_1_1_15 l_1_1_15)))
 (let ((?x318 (* (/ 51.0 100.0) l_1_1_11)))
 (let ((?x301 (- (+ (- (* (/ 51.0 100.0) l_1_1_1) (* 1.0 l_1_1_10)) ?x318) (* 1.0 l_1_1_12))))
 (let ((?x297 (+ (- (- (- (- ?x301 l_1_1_13) l_1_1_14) ?x18) (* 1.0 l_1_1_2)) ?x15)))
 (let ((?x160 (- (- (+ (+ (- (- ?x297 l_1_1_4) l_1_1_5) ?x14) ?x179) ?x17) (* 1.0 l_1_1_9))))
 (= (+ ?x160 (/ 3.0 2.0)) 0.0)))))))))))
(assert
 (let ((?x117 (* (/ 47.0 50.0) l_1_1_8)))
 (let ((?x126 (* l_1_1_17 l_1_1_17)))
 (let ((?x122 (* l_1_1_16 l_1_1_16)))
 (let ((?x161 (* _a_1_ l_1_1_9)))
 (let ((?x163 (- (- (- (* (- _a_1_) l_1_1_12) (* _a_1_ l_1_1_2)) ?x161) l_1_1_1)))
 (let ((?x121 (- (- ?x163 (* l_1_1_10 (+ (* _a_0_ _a_0_) (* 2.0 _a_1_)))) l_1_1_11)))
 (let ((?x10 (- (- (- ?x121 ?x122) ?x126) (* l_1_1_3 (+ (- (* (- (/ 7.0 5.0)) _a_0_) (* (/ 51.0 100.0) _a_1_)) 1.0)))))
 (let ((?x9 (- ?x10 (* l_1_1_6 (+ (- (* (- (/ 7.0 5.0)) _a_0_) (* (/ 51.0 100.0) _a_1_)) 1.0)))))
 (= (- (- (- ?x9 l_1_1_7) ?x117) 1.0) 0.0))))))))))
(assert
 (let ((?x192 (* (/ 357.0 250.0) l_1_1_8)))
 (let ((?x459 (* (/ 7.0 5.0) l_1_1_7)))
 (let ((?x285 (* (/ 7.0 5.0) l_1_1_11)))
 (let ((?x283 (* (/ 7.0 5.0) l_1_1_1)))
 (let ((?x288 (* _a_0_ l_1_1_9)))
 (let ((?x345 (* _a_0_ l_1_1_2)))
 (let ((?x291 (- (- (- (* (* (- 2.0) _a_0_) l_1_1_10) (* _a_0_ l_1_1_12)) ?x345) ?x288)))
 (let ((?x392 (- (- (+ (+ ?x291 ?x283) ?x285) (* (* 2.0 l_1_1_15) l_1_1_16)) (* l_1_1_3 (- (* (- (/ 51.0 100.0)) _a_0_) (/ 7.0 5.0))))))
 (let ((?x235 (- (+ (- ?x392 (* l_1_1_6 (- (* (- (/ 51.0 100.0)) _a_0_) (/ 7.0 5.0)))) ?x459) ?x192)))
 (= (+ ?x235 (/ 1.0 2.0)) 0.0)))))))))))
(assert
 (let ((?x270 (* (/ 14.0 5.0) l_1_1_8)))
 (let ((?x391 (- (* (* (* (- 2.0) _a_0_) _a_1_) l_1_1_10) (* l_1_1_3 (- _a_0_ (* (/ 7.0 5.0) _a_1_))))))
 (= (+ (- ?x391 (* l_1_1_6 (- _a_0_ (* (/ 7.0 5.0) _a_1_)))) ?x270) 0.0))))
(assert
 (let ((?x56 (- (- (* (- _a_1_) l_1_1_3) (* _a_1_ l_1_1_6)) (* (* l_1_1_10 _a_1_) _a_1_))))
 (= (- ?x56 l_1_1_8) 0.0)))
(assert
 (>= l_1_1_1 0.0))
(assert
 (>= l_1_1_2 0.0))
(assert
 (>= l_1_1_3 0.0))
(assert
 (>= l_1_1_4 0.0))
(assert
 (>= l_1_1_5 0.0))
(assert
 (>= l_1_1_6 0.0))
(assert
 (>= l_1_1_7 0.0))
(assert
 (>= l_1_1_8 0.0))
(assert
 (>= l_1_1_9 0.0))
(assert
 (>= l_1_1_10 0.0))
(assert
 (>= l_1_1_11 0.0))
(assert
 (>= l_1_1_12 0.0))
(assert
 (>= l_1_1_13 0.0))
(assert
 (>= l_1_1_14 0.0))
(assert
 (>= l_1_1_15 0.0))
(assert
 (>= l_1_1_17 0.0))
(assert
 (let ((?x559 (* (/ 7.0 5.0) l_1_2_9)))
 (let ((?x557 (* (/ 357.0 250.0) l_1_2_5)))
 (let ((?x546 (* (/ 7.0 5.0) l_1_2_11)))
 (let ((?x544 (* (/ 7.0 5.0) l_1_2_1)))
 (let ((?x542 (* (/ 8.0 5.0) _a_0_)))
 (let ((?x539 (* _a_0_ l_1_2_7)))
 (let ((?x537 (* _a_0_ l_1_2_6)))
 (let ((?x540 (- (- (- (* (* (- 2.0) _a_0_) l_1_2_10) (* _a_0_ l_1_2_12)) ?x537) ?x539)))
 (let ((?x550 (- (- (- (- ?x540 ?x542) ?x544) ?x546) (* (* 2.0 l_1_2_15) l_1_2_16))))
 (let ((?x556 (- (- ?x550 (* l_1_2_3 (+ (* (/ 51.0 100.0) _a_0_) (/ 7.0 5.0)))) (* l_1_2_4 (+ (* (/ 51.0 100.0) _a_0_) (/ 7.0 5.0))))))
 (= (- (- ?x556 ?x557) ?x559) 0.0))))))))))))
(assert
 (let ((?x664 (* (/ 47.0 50.0) l_1_2_5)))
 (let ((?x655 (* l_1_2_17 l_1_2_17)))
 (let ((?x653 (* l_1_2_16 l_1_2_16)))
 (let ((?x647 (* (/ 64.0 25.0) _a_1_)))
 (let ((?x644 (* _a_1_ l_1_2_7)))
 (let ((?x642 (* _a_1_ l_1_2_6)))
 (let ((?x648 (+ (- (- (- (* (/ 8.0 5.0) _a_0_) (* _a_1_ l_1_2_12)) ?x642) ?x644) ?x647)))
 (let ((?x651 (- (+ ?x648 l_1_2_1) (* l_1_2_10 (+ (* _a_0_ _a_0_) (* 2.0 _a_1_))))))
 (let ((?x661 (- (- (- (+ ?x651 l_1_2_11) ?x653) ?x655) (* l_1_2_3 (- (+ (* (/ 7.0 5.0) _a_0_) (* (/ 51.0 100.0) _a_1_)) 1.0)))))
 (let ((?x663 (- ?x661 (* l_1_2_4 (- (+ (* (/ 7.0 5.0) _a_0_) (* (/ 51.0 100.0) _a_1_)) 1.0)))))
 (= (+ (- ?x663 ?x664) l_1_2_9) 0.0))))))))))))
(assert
 (let ((?x761 (- (- (* (* (* (- 2.0) _a_0_) _a_1_) l_1_2_10) (* (/ 128.0 25.0) _a_1_)) (* l_1_2_3 (+ (- _a_0_) (* (/ 7.0 5.0) _a_1_))))))
 (let ((?x765 (+ (- ?x761 (* l_1_2_4 (+ (- _a_0_) (* (/ 7.0 5.0) _a_1_)))) (* (/ 14.0 5.0) l_1_2_5))))
 (= ?x765 0.0))))
(assert
 (let ((?x647 (* (/ 64.0 25.0) _a_1_)))
 (let ((?x818 (- (+ (+ (* _a_1_ l_1_2_3) (* _a_1_ l_1_2_4)) ?x647) (* (* l_1_2_10 _a_1_) _a_1_))))
 (= (- ?x818 l_1_2_5) 0.0))))
(assert
 (let ((?x853 (* (/ 51.0 100.0) l_1_2_9)))
 (let ((?x846 (* (/ 2601.0 10000.0) l_1_2_5)))
 (let ((?x844 (* (/ 51.0 100.0) l_1_2_4)))
 (let ((?x842 (* (/ 51.0 100.0) l_1_2_3)))
 (let ((?x839 (* l_1_2_15 l_1_2_15)))
 (let ((?x833 (* (/ 51.0 100.0) l_1_2_11)))
 (let ((?x836 (- (- (- (* (- (/ 51.0 100.0)) l_1_2_1) (* 1.0 l_1_2_10)) ?x833) (* 1.0 l_1_2_12))))
 (let ((?x845 (- (- (- (- (- (- ?x836 l_1_2_13) l_1_2_14) ?x839) l_1_2_2) ?x842) ?x844)))
 (let ((?x852 (- (- (- (- ?x845 ?x846) (* 1.0 l_1_2_6)) (* 1.0 l_1_2_7)) l_1_2_8)))
 (= (+ (- ?x852 ?x853) 1.0) 0.0)))))))))))
(assert
 (>= l_1_2_1 0.0))
(assert
 (>= l_1_2_2 0.0))
(assert
 (>= l_1_2_3 0.0))
(assert
 (>= l_1_2_4 0.0))
(assert
 (>= l_1_2_5 0.0))
(assert
 (>= l_1_2_6 0.0))
(assert
 (>= l_1_2_7 0.0))
(assert
 (>= l_1_2_8 0.0))
(assert
 (>= l_1_2_9 0.0))
(assert
 (>= l_1_2_10 0.0))
(assert
 (>= l_1_2_11 0.0))
(assert
 (>= l_1_2_12 0.0))
(assert
 (>= l_1_2_13 0.0))
(assert
 (>= l_1_2_14 0.0))
(assert
 (>= l_1_2_15 0.0))
(assert
 (>= l_1_2_17 0.0))
(check-sat)
(get-model)